letting n =  10
letting blocks =  [[1, 4], [1, 6], [1, 7], [2, 5], [2, 6], [3, 1], [3, 7], [3, 8], [3, 9], [4, 3], [4, 8], [5, 1], [5, 2], [5, 3], [5, 6], [5, 9], [6, 1], [6, 3], [6, 6], [6, 8], [6, 9], [6, 10], [7, 1], [7, 2], [7, 6], [7, 10], [8, 7], [8, 9], [9, 4], [10, 4], [10, 7], [10, 9]]
